NAME          CHEM_200_SS6
ROWS
 N  OBJ
 L  CON1
 L  CON2
 L  CON3
 L  CON4
 L  CON5
 L  CON6
 E  CON7
 E  CON8
 E  CON9
 E  CON10
 E  CON11
 E  CON12
 E  CON13
 L  CON14
 L  CON15
 L  CON16
 L  CON17
 L  CON18
 L  CON19
 L  CON20
 L  CON21
 L  CON22
 L  CON23
 L  CON24
 L  CON25
 L  CON26
 L  CON27
 L  CON28
 L  CON29
 L  CON30
 L  CON31
 L  CON32
 L  CON33
 L  CON34
 L  CON35
 L  CON36
 L  CON37
 L  CON38
 L  CON39
 L  CON40
 L  CON41
 L  CON42
 L  CON43
 L  CON44
 L  CON45
 L  CON46
 L  CON47
 L  CON48
 L  CON49
 L  CON50
 L  CON51
 L  CON52
 L  CON53
 L  CON54
 L  CON55
 L  CON56
 L  CON57
 L  CON58
 L  CON59
 L  CON60
 L  CON61
 L  CON62
 L  CON63
 L  CON64
 L  CON65
 E  CON66
 E  CON67
 E  CON68
 E  CON69
 E  CON70
 E  CON71
 E  CON72
 E  CON73
 E  CON74
 E  CON75
 E  CON76
 E  CON77
 E  CON78
 E  CON79
 L  CON80
 L  CON81
 L  CON82
 L  CON83
 L  CON84
 L  CON85
 L  CON86
 L  CON87
 L  CON88
 L  CON89
 L  CON90
 L  CON91
 L  CON92
 L  CON93
COLUMNS
    A[1,1]    CON7      -1.000000     CON14     1.000000    
    A[1,2]    CON7      1.000000      CON15     1.000000    
    A[2,1]    CON8      -1.000000     CON16     1.000000    
    A[2,2]    CON8      1.000000      CON17     1.000000    
    A[3,1]    CON9      -1.000000     CON18     1.000000    
    A[3,2]    CON9      1.000000      CON19     1.000000    
    A[4,1]    CON10     -1.000000     CON20     1.000000    
    A[4,2]    CON10     1.000000      CON21     1.000000    
    A[5,1]    CON11     -1.000000     CON22     1.000000    
    A[5,2]    CON11     1.000000      CON23     1.000000    
    A[6,1]    CON12     -1.000000     CON24     1.000000    
    A[6,2]    CON12     1.000000      CON25     1.000000    
    A[7,1]    CON13     -1.000000     CON26     1.000000    
    A[7,2]    CON13     1.000000      CON27     1.000000    
    qb[1,1]   OBJ       23.000000     CON52     1.000000    
    qb[1,2]   OBJ       24.000000     CON7      -1.000000   
    qb[1,2]   CON53     1.000000    
    qb[2,1]   OBJ       25.000000     CON54     1.000000    
    qb[2,2]   OBJ       26.000000     CON8      -1.000000   
    qb[2,2]   CON55     1.000000    
    qb[3,1]   CON56     1.000000    
    qb[3,2]   CON9      -1.000000     CON57     1.000000    
    qb[4,1]   CON58     1.000000    
    qb[4,2]   CON10     -1.000000     CON59     1.000000    
    qb[5,1]   CON60     1.000000    
    qb[5,2]   CON11     -1.000000     CON61     1.000000    
    qb[6,1]   CON62     1.000000    
    qb[6,2]   CON12     -1.000000     CON63     1.000000    
    qb[7,1]   CON64     1.000000    
    qb[7,2]   CON13     -1.000000     CON65     1.000000    
    qs[1,1]   CON66     1.000000    
    qs[1,2]   CON7      1.000000      CON67     1.000000    
    qs[2,1]   CON68     1.000000    
    qs[2,2]   CON8      1.000000      CON69     1.000000    
    qs[3,1]   CON70     1.000000    
    qs[3,2]   CON9      1.000000      CON71     1.000000    
    qs[4,1]   CON72     1.000000    
    qs[4,2]   CON10     1.000000      CON73     1.000000    
    qs[5,1]   CON74     1.000000    
    qs[5,2]   CON11     1.000000      CON75     1.000000    
    qs[6,1]   CON76     1.000000    
    qs[6,2]   CON12     1.000000      CON77     1.000000    
    qs[7,1]   CON78     1.000000    
    qs[7,2]   CON13     1.000000      CON79     1.000000    
    B[1,1,1]  CON28     1.000000    
    B[1,1,2]  CON7      1.000000      CON8      1.000000    
    B[1,1,2]  CON9      -1.000000     CON29     1.000000    
    B[1,2,1]  CON30     1.000000    
    B[1,2,2]  CON7      1.000000      CON8      1.000000    
    B[1,2,2]  CON9      -1.000000     CON31     1.000000    
    B[1,3,1]  CON32     1.000000    
    B[1,3,2]  CON33     1.000000    
    B[2,1,1]  CON34     1.000000    
    B[2,1,2]  CON35     1.000000    
    B[2,2,1]  CON36     1.000000    
    B[2,2,2]  CON37     1.000000    
    B[2,3,1]  CON38     1.000000    
    B[2,3,2]  CON9      1.000000      CON10     -1.000000   
    B[2,3,2]  CON11     -1.000000     CON39     1.000000    
    B[3,1,1]  CON40     1.000000    
    B[3,1,2]  CON41     1.000000    
    B[3,2,1]  CON42     1.000000    
    B[3,2,2]  CON43     1.000000    
    B[3,3,1]  CON44     1.000000    
    B[3,3,2]  CON8      1.000000      CON11     1.000000    
    B[3,3,2]  CON12     -1.000000     CON45     1.000000    
    B[4,1,1]  CON46     1.000000    
    B[4,1,2]  CON12     1.000000      CON13     -1.000000   
    B[4,1,2]  CON47     1.000000    
    B[4,2,1]  CON48     1.000000    
    B[4,2,2]  CON12     1.000000      CON13     -1.000000   
    B[4,2,2]  CON49     1.000000    
    B[4,3,1]  CON50     1.000000    
    B[4,3,2]  CON51     1.000000    
    MARKER    'MARKER'                'INTORG'
    n[1,1]    OBJ       2500.000000   CON1      -80.000000  
    n[1,1]    CON2      -80.000000  
    n[1,2]    OBJ       2600.000000   CON2      -80.000000  
    n[2,1]    OBJ       3000.000000   CON3      -80.000000  
    n[2,1]    CON4      -80.000000  
    n[2,2]    OBJ       3100.000000   CON4      -80.000000  
    n[3,1]    OBJ       2800.000000   CON5      -80.000000  
    n[3,1]    CON6      -80.000000  
    n[3,2]    OBJ       2900.000000   CON6      -80.000000  
    y[1,1,1]  CON1      4.000000      CON28     -100.000000 
    y[1,1,2]  CON2      4.000000      CON29     -100.000000 
    y[1,2,1]  CON3      4.000000      CON30     -200.000000 
    y[1,2,2]  CON4      4.000000      CON31     -200.000000 
    y[1,3,1]  CON32     -150.000000 
    y[1,3,2]  CON33     -150.000000 
    y[2,1,1]  CON34     -100.000000 
    y[2,1,2]  CON35     -100.000000 
    y[2,2,1]  CON36     -200.000000 
    y[2,2,2]  CON37     -200.000000 
    y[2,3,1]  CON5      4.000000      CON38     -150.000000 
    y[2,3,2]  CON6      4.000000      CON39     -150.000000 
    y[3,1,1]  CON40     -100.000000 
    y[3,1,2]  CON41     -100.000000 
    y[3,2,1]  CON42     -200.000000 
    y[3,2,2]  CON43     -200.000000 
    y[3,3,1]  CON5      4.000000      CON44     -150.000000 
    y[3,3,2]  CON6      4.000000      CON45     -150.000000 
    y[4,1,1]  CON1      4.000000      CON46     -100.000000 
    y[4,1,2]  CON2      4.000000      CON47     -100.000000 
    y[4,2,1]  CON3      4.000000      CON48     -200.000000 
    y[4,2,2]  CON4      4.000000      CON49     -200.000000 
    y[4,3,1]  CON50     -150.000000 
    y[4,3,2]  CON51     -150.000000 
    MARKER    'MARKER'                 'INTEND'
    qszero[1,1]  CON66     -1.000000     CON80     1.000000    
    qszero[1,2]  CON67     -1.000000     CON81     1.000000    
    qszero[2,1]  CON68     -1.000000     CON82     1.000000    
    qszero[2,2]  CON69     -1.000000     CON83     1.000000    
    qszero[3,1]  CON70     -1.000000     CON84     1.000000    
    qszero[3,2]  CON71     -1.000000     CON85     1.000000    
    qszero[4,1]  OBJ       -59.418083    CON72     -1.000000   
    qszero[4,1]  CON86     1.000000    
    qszero[4,2]  OBJ       -50.912814    CON73     -1.000000   
    qszero[4,2]  CON87     1.000000    
    qszero[5,1]  CON74     -1.000000     CON88     1.000000    
    qszero[5,2]  CON75     -1.000000     CON89     1.000000    
    qszero[6,1]  CON76     -1.000000     CON90     1.000000    
    qszero[6,2]  CON77     -1.000000     CON91     1.000000    
    qszero[7,1]  OBJ       -76.152743    CON78     -1.000000   
    qszero[7,1]  CON92     1.000000    
    qszero[7,2]  OBJ       -75.585611    CON79     -1.000000   
    qszero[7,2]  CON93     1.000000    
    qsplus[1,1]  CON66     -1.000000   
    qsplus[1,2]  CON67     -1.000000   
    qsplus[2,1]  CON68     -1.000000   
    qsplus[2,2]  CON69     -1.000000   
    qsplus[3,1]  CON70     -1.000000   
    qsplus[3,2]  CON71     -1.000000   
    qsplus[4,1]  CON72     -1.000000   
    qsplus[4,2]  CON73     -1.000000   
    qsplus[5,1]  CON74     -1.000000   
    qsplus[5,2]  CON75     -1.000000   
    qsplus[6,1]  CON76     -1.000000   
    qsplus[6,2]  CON77     -1.000000   
    qsplus[7,1]  CON78     -1.000000   
    qsplus[7,2]  CON79     -1.000000   
RHS
    RHS       CON1      -0.000000     CON2      -0.000000   
    RHS       CON3      -0.000000     CON4      -0.000000   
    RHS       CON5      -0.000000     CON6      -0.000000   
    RHS       CON7      -0.000000     CON8      -0.000000   
    RHS       CON9      -0.000000     CON10     -0.000000   
    RHS       CON11     -0.000000     CON12     -0.000000   
    RHS       CON13     -0.000000     CON14     400.000000  
    RHS       CON15     400.000000    CON16     400.000000  
    RHS       CON17     400.000000    CON18     400.000000  
    RHS       CON19     400.000000    CON20     400.000000  
    RHS       CON21     400.000000    CON22     400.000000  
    RHS       CON23     400.000000    CON24     400.000000  
    RHS       CON25     400.000000    CON26     400.000000  
    RHS       CON27     400.000000    CON28     -0.000000   
    RHS       CON29     -0.000000     CON30     -0.000000   
    RHS       CON31     -0.000000     CON32     -0.000000   
    RHS       CON33     -0.000000     CON34     -0.000000   
    RHS       CON35     -0.000000     CON36     -0.000000   
    RHS       CON37     -0.000000     CON38     -0.000000   
    RHS       CON39     -0.000000     CON40     -0.000000   
    RHS       CON41     -0.000000     CON42     -0.000000   
    RHS       CON43     -0.000000     CON44     -0.000000   
    RHS       CON45     -0.000000     CON46     -0.000000   
    RHS       CON47     -0.000000     CON48     -0.000000   
    RHS       CON49     -0.000000     CON50     -0.000000   
    RHS       CON51     -0.000000     CON52     200.000000  
    RHS       CON53     200.000000    CON54     250.000000  
    RHS       CON55     250.000000    CON56     -0.000000   
    RHS       CON57     -0.000000     CON58     -0.000000   
    RHS       CON59     -0.000000     CON60     -0.000000   
    RHS       CON61     -0.000000     CON62     -0.000000   
    RHS       CON63     -0.000000     CON64     -0.000000   
    RHS       CON65     -0.000000     CON66     -0.000000   
    RHS       CON67     -0.000000     CON68     -0.000000   
    RHS       CON69     -0.000000     CON70     -0.000000   
    RHS       CON71     -0.000000     CON72     -0.000000   
    RHS       CON73     -0.000000     CON74     -0.000000   
    RHS       CON75     -0.000000     CON76     -0.000000   
    RHS       CON77     -0.000000     CON78     -0.000000   
    RHS       CON79     -0.000000     CON80     -0.000000   
    RHS       CON81     -0.000000     CON82     -0.000000   
    RHS       CON83     -0.000000     CON84     -0.000000   
    RHS       CON85     -0.000000     CON86     83.362663   
    RHS       CON87     65.566196     CON88     -0.000000   
    RHS       CON89     -0.000000     CON90     -0.000000   
    RHS       CON91     -0.000000     CON92     178.594600  
    RHS       CON93     61.356153   
BOUNDS
 LI BOUND     n[1,1]    0.000000    
 LI BOUND     n[1,2]    0.000000    
 LI BOUND     n[2,1]    0.000000    
 LI BOUND     n[2,2]    0.000000    
 LI BOUND     n[3,1]    0.000000    
 LI BOUND     n[3,2]    0.000000    
 LI BOUND     y[1,1,1]  0.000000    
 LI BOUND     y[1,1,2]  0.000000    
 LI BOUND     y[1,2,1]  0.000000    
 LI BOUND     y[1,2,2]  0.000000    
 LI BOUND     y[1,3,1]  0.000000    
 LI BOUND     y[1,3,2]  0.000000    
 LI BOUND     y[2,1,1]  0.000000    
 LI BOUND     y[2,1,2]  0.000000    
 LI BOUND     y[2,2,1]  0.000000    
 LI BOUND     y[2,2,2]  0.000000    
 LI BOUND     y[2,3,1]  0.000000    
 LI BOUND     y[2,3,2]  0.000000    
 LI BOUND     y[3,1,1]  0.000000    
 LI BOUND     y[3,1,2]  0.000000    
 LI BOUND     y[3,2,1]  0.000000    
 LI BOUND     y[3,2,2]  0.000000    
 LI BOUND     y[3,3,1]  0.000000    
 LI BOUND     y[3,3,2]  0.000000    
 LI BOUND     y[4,1,1]  0.000000    
 LI BOUND     y[4,1,2]  0.000000    
 LI BOUND     y[4,2,1]  0.000000    
 LI BOUND     y[4,2,2]  0.000000    
 LI BOUND     y[4,3,1]  0.000000    
 LI BOUND     y[4,3,2]  0.000000    
ENDATA
